Academic license - for non-commercial use only
Set parameter TimeLimit to value 7200

Gurobi Optimizer version 7.5.2 build v7.5.2rc1 (linux64)
Copyright (c) 2017, Gurobi Optimization, Inc.

Read LP format model from file flow/abz7.lp
Reading time = 1.16 seconds
: 100334 rows, 180761 columns, 2576198 nonzeros
Optimize a model with 100334 rows, 180761 columns and 2576198 nonzeros
Variable types: 0 continuous, 180761 integer (180760 binary)
Coefficient statistics:
  Matrix range     [1e+00, 7e+02]
  Objective range  [1e+00, 1e+00]
  Bounds range     [1e+00, 1e+00]
  RHS range        [1e+00, 1e+00]
Presolve removed 6441 rows and 5782 columns (presolve time = 5s) ...
Presolve removed 6760 rows and 6120 columns
Presolve time: 8.49s
Presolved: 93574 rows, 174641 columns, 2548353 nonzeros
Variable types: 0 continuous, 174641 integer (174640 binary)

Deterministic concurrent LP optimizer: dual simplex and barrier
Showing barrier log only...

Presolve removed 102 rows and 83 columns
Presolved: 93472 rows, 174558 columns, 2548124 nonzeros

Root barrier log...

Elapsed ordering time = 5s
Elapsed ordering time = 10s
Elapsed ordering time = 13s
Elapsed ordering time = 15s
Elapsed ordering time = 20s
Ordering time: 20.11s

Barrier statistics:
 AA' NZ     : 4.602e+06
 Factor NZ  : 7.175e+07 (roughly 700 MBytes of memory)
 Factor Ops : 3.081e+11 (roughly 13 seconds per iteration)
 Threads    : 1

                  Objective                Residual
Iter       Primal          Dual         Primal    Dual     Compl     Time
   0   5.13642848e+03 -6.78801133e+05  1.85e+04 1.02e-01  1.83e+02    54s
   1   2.88172467e+03 -6.92455936e+05  2.00e+03 9.28e-02  2.21e+01    74s
   2   1.87788479e+03 -5.11429377e+05  4.61e+02 1.71e-12  5.55e+00    93s
   3   1.65673299e+03 -2.58782295e+05  2.06e+02 2.20e-12  2.23e+00   113s
   4   1.41981250e+03 -1.20777333e+05  7.95e+01 1.39e-12  8.56e-01   133s
   5   1.19277283e+03 -4.71269328e+04  3.93e+01 1.32e-12  3.67e-01   152s
   6   8.86352798e+02 -1.85906846e+04  9.86e+00 1.07e-12  1.11e-01   173s
   7   7.08621398e+02 -7.42788792e+03  2.30e+00 7.11e-13  3.39e-02   194s
   8   6.41088757e+02 -1.73877584e+03  1.60e-01 5.65e-13  7.05e-03   215s
   9   6.25161898e+02  9.99216753e+01  2.92e-02 2.45e-13  1.48e-03   235s
  10   6.18148796e+02  2.79455087e+02  2.46e-02 1.59e-13  9.55e-04   254s
  11   5.91182573e+02  4.67674410e+02  8.87e-03 6.74e-14  3.46e-04   275s
  12   5.87021362e+02  5.01598389e+02  7.63e-03 5.31e-14  2.39e-04   294s
  13   5.69360755e+02  5.26335534e+02  2.91e-03 4.92e-14  1.20e-04   314s
  14   5.63872329e+02  5.35798516e+02  1.76e-03 4.32e-14  7.86e-05   334s
  15   5.61649121e+02  5.40021194e+02  1.31e-03 4.63e-14  6.05e-05   352s
  16   5.60649111e+02  5.44722812e+02  1.09e-03 5.26e-14  4.46e-05   371s
  17   5.59243730e+02  5.47590120e+02  7.32e-04 6.40e-14  3.26e-05   390s
  18   5.58440296e+02  5.48988227e+02  5.20e-04 6.44e-14  2.64e-05   408s
  19   5.57601198e+02  5.52603553e+02  2.59e-04 8.16e-14  1.40e-05   429s
  20   5.57303201e+02  5.54304002e+02  1.70e-04 6.59e-14  8.39e-06   448s
  21   5.57049083e+02  5.55312550e+02  9.50e-05 8.49e-14  4.86e-06   468s
  22   5.56896532e+02  5.55988925e+02  4.85e-05 6.80e-14  2.54e-06   489s
  23   5.56824989e+02  5.56333890e+02  2.76e-05 7.14e-14  1.37e-06   508s
  24   5.56778847e+02  5.56500480e+02  1.49e-05 6.77e-14  7.79e-07   528s
  25   5.56765840e+02  5.56538595e+02  1.18e-05 7.68e-14  6.36e-07   547s
  26   5.56758979e+02  5.56584178e+02  1.02e-05 7.42e-14  4.89e-07   566s
  27   5.56733673e+02  5.56723026e+02  4.10e-07 9.82e-14  2.98e-08   586s
  28   5.56730579e+02  5.56730345e+02  1.43e-09 9.84e-14  6.52e-10   604s
  29   5.56730555e+02  5.56730551e+02  1.25e-09 1.24e-13  1.16e-11   624s

Barrier solved model in 29 iterations and 623.61 seconds
Optimal objective 5.56730555e+02


Root crossover log...

   17361 DPushes remaining with DInf 0.0000000e+00               624s
       0 DPushes remaining with DInf 7.8268182e-12               625s

   76160 PPushes remaining with PInf 1.0381808e-06               625s
   73797 PPushes remaining with PInf 1.0381808e-06               625s
   67009 PPushes remaining with PInf 1.0381808e-06               630s
   59515 PPushes remaining with PInf 0.0000000e+00               635s
   54558 PPushes remaining with PInf 0.0000000e+00               640s
   49503 PPushes remaining with PInf 0.0000000e+00               646s
   46297 PPushes remaining with PInf 0.0000000e+00               651s
   42274 PPushes remaining with PInf 0.0000000e+00               655s
   38245 PPushes remaining with PInf 0.0000000e+00               660s
   34542 PPushes remaining with PInf 0.0000000e+00               666s
   32177 PPushes remaining with PInf 0.0000000e+00               670s
   28991 PPushes remaining with PInf 0.0000000e+00               676s
   27001 PPushes remaining with PInf 0.0000000e+00               680s
   24740 PPushes remaining with PInf 0.0000000e+00               685s
   22100 PPushes remaining with PInf 0.0000000e+00               691s
   20136 PPushes remaining with PInf 0.0000000e+00               695s
   16846 PPushes remaining with PInf 0.0000000e+00               700s
   14381 PPushes remaining with PInf 0.0000000e+00               706s
   12292 PPushes remaining with PInf 0.0000000e+00               711s
   10738 PPushes remaining with PInf 0.0000000e+00               715s
    8885 PPushes remaining with PInf 0.0000000e+00               721s
    7451 PPushes remaining with PInf 0.0000000e+00               726s
    6377 PPushes remaining with PInf 0.0000000e+00               730s
    5351 PPushes remaining with PInf 0.0000000e+00               735s
    4115 PPushes remaining with PInf 0.0000000e+00               741s
    3013 PPushes remaining with PInf 0.0000000e+00               746s
    2176 PPushes remaining with PInf 0.0000000e+00               751s
    1390 PPushes remaining with PInf 0.0000000e+00               756s
     407 PPushes remaining with PInf 0.0000000e+00               761s
       0 PPushes remaining with PInf 0.0000000e+00               763s

  Push phase complete: Pinf 0.0000000e+00, Dinf 5.7096580e-10    763s


Root simplex log...

Iteration    Objective       Primal Inf.    Dual Inf.      Time
   93508    5.5673055e+02   0.000000e+00   0.000000e+00    764s
   93508    5.5673055e+02   0.000000e+00   0.000000e+00    764s
Concurrent spin time: 0.01s

Solved with barrier

Root relaxation: objective 5.567306e+02, 93508 iterations, 751.39 seconds

    Nodes    |    Current Node    |     Objective Bounds      |     Work
 Expl Unexpl |  Obj  Depth IntInf | Incumbent    BestBd   Gap | It/Node Time

     0     0  556.73055    0 43467          -  556.73055      -     - 1403s
     0     0  557.00000    0 38796          -  557.00000      -     - 3644s
     0     0  557.00000    0 36229          -  557.00000      -     - 4513s
     0     0          -    0               -  557.00000      -     - 7200s

Cutting planes:
  Implied bound: 1
  Clique: 11
  MIR: 10
  StrongCG: 11
  Zero half: 1

Explored 1 nodes (648144 simplex iterations) in 7200.01 seconds
Thread count was 4 (of 4 available processors)

Solution count 0

Time limit reached
Best objective -, best bound 5.570000000000e+02, gap -

Unable to retrieve attribute 'X'

